decision_x1=[0,7];
decision_x2=[0,7];
decision_x3=[0,7];
decision_x4=[0,7];
decision_x5=[0,7];
decision_x6=[0,7];
decision_x7=[0,7];
decision_x8=[0,7];
decision_x9=[0,7];
decision_x10=[0,7];
decision_x11=[0,7];
decision_x12=[0,7];
decision_x13=[0,7];
decision_x14=[0,7];
random_y1=[0,7];
random_y2=[0,7];
random_y3=[0,7];
random_y4=[0,7];
random_y5=[0,7];
random_y6=[0,7];
constraint_x2_x1=[
0,0,1.1|
0,1,10|
0,2,5.2|
0,3,1.2|
0,4,9.7|
0,5,1.5|
0,6,3.7|
0,7,2.3|
1,0,3.9|
1,1,8.5|
1,2,0.27|
1,3,7.7|
1,4,6.8|
1,5,8.8|
1,6,3.3|
1,7,5.7|
2,0,0.012|
2,1,5.3|
2,2,0.25|
2,3,2.6|
2,4,9.1|
2,5,6.9|
2,6,9.9|
2,7,0.12|
3,0,3.3|
3,1,0.97|
3,2,9.5|
3,3,0.1|
3,4,4.2|
3,5,8.7|
3,6,7.8|
3,7,3.8|
4,0,9.9|
4,1,0.99|
4,2,6|
4,3,2.8|
4,4,1.5|
4,5,3.2|
4,6,7.7|
4,7,1.9|
5,0,1.8|
5,1,5.5|
5,2,8.9|
5,3,9.7|
5,4,8.9|
5,5,8.9|
5,6,6.5|
5,7,2|
6,0,8.6|
6,1,6.4|
6,2,4.8|
6,3,5.4|
6,4,4.1|
6,5,8.6|
6,6,3.6|
6,7,2.7|
7,0,5.9|
7,1,0.97|
7,2,7.3|
7,3,8.3|
7,4,5.4|
7,5,2.4|
7,6,0.04|
7,7,1.7|
];
constraint_x3_x2=[
0,0,9.8|
0,1,7.4|
0,2,2|
0,3,9|
0,4,0.89|
0,5,10|
0,6,3.7|
0,7,9.6|
1,0,2.8|
1,1,7|
1,2,6.4|
1,3,4.5|
1,4,0.79|
1,5,8.1|
1,6,7.8|
1,7,4.6|
2,0,8.2|
2,1,2.1|
2,2,2|
2,3,0.53|
2,4,9.4|
2,5,2.3|
2,6,8.7|
2,7,0.84|
3,0,3.7|
3,1,7.6|
3,2,1|
3,3,2.4|
3,4,6.6|
3,5,3|
3,6,0.39|
3,7,0.47|
4,0,6.5|
4,1,0.99|
4,2,8.8|
4,3,5.2|
4,4,1.7|
4,5,3.7|
4,6,0.3|
4,7,7.2|
5,0,1.3|
5,1,0.2|
5,2,2.6|
5,3,4.9|
5,4,9.4|
5,5,6.4|
5,6,0.22|
5,7,6.8|
6,0,8.3|
6,1,7.4|
6,2,9.1|
6,3,4.6|
6,4,3.8|
6,5,9.8|
6,6,0.58|
6,7,8.4|
7,0,9|
7,1,2.3|
7,2,5.2|
7,3,8.8|
7,4,7.4|
7,5,1|
7,6,9.2|
7,7,9.4|
];
constraint_x4_x3=[
0,0,4.6|
0,1,6.5|
0,2,4.1|
0,3,7.9|
0,4,8.6|
0,5,8.5|
0,6,4.3|
0,7,0.8|
1,0,4.6|
1,1,0.024|
1,2,7.7|
1,3,6.5|
1,4,0.99|
1,5,7.4|
1,6,4.9|
1,7,1.8|
2,0,4.8|
2,1,6.5|
2,2,2.3|
2,3,0.67|
2,4,2.5|
2,5,4.5|
2,6,6.9|
2,7,8.8|
3,0,6.7|
3,1,2.5|
3,2,2.1|
3,3,4.3|
3,4,0.9|
3,5,1.6|
3,6,4.6|
3,7,0.6|
4,0,4|
4,1,7.8|
4,2,5.1|
4,3,4.7|
4,4,5.5|
4,5,1.6|
4,6,1.1|
4,7,5|
5,0,4.8|
5,1,5|
5,2,7.7|
5,3,2.5|
5,4,7.5|
5,5,4.7|
5,6,5.4|
5,7,2.4|
6,0,1.7|
6,1,0.92|
6,2,3|
6,3,7.4|
6,4,4.1|
6,5,0.23|
6,6,5.2|
6,7,10|
7,0,9.2|
7,1,9.8|
7,2,6.6|
7,3,9.6|
7,4,2.7|
7,5,7.4|
7,6,3.9|
7,7,4.2|
];
constraint_x5_x1=[
0,0,2.7|
0,1,6.6|
0,2,7.3|
0,3,6.8|
0,4,4.1|
0,5,0.22|
0,6,1.6|
0,7,3.9|
1,0,0.098|
1,1,1.7|
1,2,3|
1,3,1.5|
1,4,2.2|
1,5,0.62|
1,6,6.6|
1,7,5.8|
2,0,7.6|
2,1,3.5|
2,2,2.1|
2,3,3.1|
2,4,6.5|
2,5,3.3|
2,6,0.76|
2,7,9.5|
3,0,7.8|
3,1,7|
3,2,0.12|
3,3,3|
3,4,2.1|
3,5,3.8|
3,6,0.8|
3,7,9.5|
4,0,4.4|
4,1,7.2|
4,2,2|
4,3,9.5|
4,4,4.1|
4,5,0.67|
4,6,7.4|
4,7,6.2|
5,0,9.3|
5,1,9.7|
5,2,2.7|
5,3,5.9|
5,4,3.2|
5,5,5.5|
5,6,5.4|
5,7,2.3|
6,0,3|
6,1,0.05|
6,2,2.9|
6,3,3.1|
6,4,6.5|
6,5,4.5|
6,6,3.9|
6,7,8.8|
7,0,8.3|
7,1,0.025|
7,2,4.8|
7,3,4.7|
7,4,6.4|
7,5,3.6|
7,6,2.7|
7,7,3.5|
];
constraint_x6_x2=[
0,0,6.2|
0,1,3.2|
0,2,6|
0,3,9.1|
0,4,6.5|
0,5,7.3|
0,6,2.9|
0,7,3.6|
1,0,6.3|
1,1,3.3|
1,2,2.2|
1,3,1.4|
1,4,5|
1,5,2.8|
1,6,6.6|
1,7,6.8|
2,0,4.9|
2,1,4.9|
2,2,8.3|
2,3,8.6|
2,4,2.8|
2,5,4.2|
2,6,2.5|
2,7,9.8|
3,0,7.6|
3,1,5.1|
3,2,2.9|
3,3,5.3|
3,4,6.7|
3,5,7.2|
3,6,9.2|
3,7,4.6|
4,0,8.2|
4,1,7.1|
4,2,7.8|
4,3,8.7|
4,4,3.3|
4,5,1.1|
4,6,7.6|
4,7,2.5|
5,0,8.2|
5,1,9.8|
5,2,1.6|
5,3,6|
5,4,9.7|
5,5,6.8|
5,6,4.8|
5,7,2.9|
6,0,0.21|
6,1,7.6|
6,2,0.65|
6,3,8.5|
6,4,10|
6,5,7.2|
6,6,4.9|
6,7,1.2|
7,0,4.2|
7,1,1.6|
7,2,7.2|
7,3,8.3|
7,4,9.3|
7,5,7.7|
7,6,7.3|
7,7,5.2|
];
constraint_x7_x3=[
0,0,5|
0,1,9.3|
0,2,0.0014|
0,3,1.7|
0,4,9.2|
0,5,9.8|
0,6,1.7|
0,7,1.2|
1,0,6.1|
1,1,2.9|
1,2,2.9|
1,3,4.1|
1,4,9.7|
1,5,5.2|
1,6,8.2|
1,7,0.32|
2,0,1.6|
2,1,2.2|
2,2,9.5|
2,3,2.4|
2,4,0.67|
2,5,7.7|
2,6,4|
2,7,8.3|
3,0,6|
3,1,1.8|
3,2,2.2|
3,3,1.8|
3,4,1.2|
3,5,2.8|
3,6,1.8|
3,7,7.3|
4,0,2.9|
4,1,1.2|
4,2,2.4|
4,3,7.8|
4,4,6.6|
4,5,3.6|
4,6,8.5|
4,7,6.7|
5,0,8.6|
5,1,1|
5,2,8|
5,3,0.18|
5,4,4.5|
5,5,3.5|
5,6,0.38|
5,7,4.5|
6,0,4.2|
6,1,3.5|
6,2,10|
6,3,3.5|
6,4,8|
6,5,9.1|
6,6,3.3|
6,7,1.1|
7,0,0.099|
7,1,6.1|
7,2,9.7|
7,3,3.1|
7,4,9.7|
7,5,3|
7,6,3.7|
7,7,1.5|
];
constraint_x8_x4=[
0,0,7|
0,1,9.3|
0,2,2.9|
0,3,0.82|
0,4,8|
0,5,0.97|
0,6,1.8|
0,7,6.5|
1,0,0.19|
1,1,0.74|
1,2,2.2|
1,3,9.4|
1,4,2.5|
1,5,1.7|
1,6,2.9|
1,7,8.8|
2,0,6.7|
2,1,0.83|
2,2,1.3|
2,3,1.8|
2,4,2|
2,5,9.4|
2,6,2.2|
2,7,6.5|
3,0,5|
3,1,9.7|
3,2,0.66|
3,3,1|
3,4,4.3|
3,5,2.2|
3,6,1.3|
3,7,5.5|
4,0,5.7|
4,1,1.4|
4,2,6.4|
4,3,7.3|
4,4,2.5|
4,5,3.1|
4,6,3.5|
4,7,7|
5,0,8.3|
5,1,2.8|
5,2,8.2|
5,3,3.4|
5,4,9.7|
5,5,0.89|
5,6,3.6|
5,7,0.6|
6,0,4.7|
6,1,8.3|
6,2,6.8|
6,3,4.7|
6,4,9|
6,5,2.6|
6,6,0.93|
6,7,1.3|
7,0,0.078|
7,1,3|
7,2,9|
7,3,2.7|
7,4,9.1|
7,5,6.2|
7,6,9|
7,7,3|
];
constraint_x9_x5=[
0,0,2.3|
0,1,5.8|
0,2,0.12|
0,3,5.8|
0,4,4.3|
0,5,1.1|
0,6,5.8|
0,7,1.4|
1,0,2.4|
1,1,3.4|
1,2,3|
1,3,0.23|
1,4,4.4|
1,5,2.7|
1,6,1.9|
1,7,4.3|
2,0,7.3|
2,1,6|
2,2,2.8|
2,3,7.9|
2,4,5.6|
2,5,5.4|
2,6,0.98|
2,7,4.2|
3,0,9.1|
3,1,3.7|
3,2,6.2|
3,3,6.9|
3,4,8.6|
3,5,3.6|
3,6,6.4|
3,7,4|
4,0,2.6|
4,1,0.96|
4,2,9.9|
4,3,1.3|
4,4,1.9|
4,5,7.8|
4,6,9.3|
4,7,2|
5,0,0.61|
5,1,1.2|
5,2,2.8|
5,3,1.7|
5,4,7.9|
5,5,5.9|
5,6,9.2|
5,7,5.7|
6,0,2.3|
6,1,0.3|
6,2,4|
6,3,3.7|
6,4,0.058|
6,5,3.9|
6,6,8.5|
6,7,4|
7,0,2.5|
7,1,7.8|
7,2,3.9|
7,3,8.5|
7,4,9.7|
7,5,9.1|
7,6,7.2|
7,7,9.4|
];
constraint_x10_x6=[
0,0,9|
0,1,0.85|
0,2,4.9|
0,3,0.56|
0,4,8.1|
0,5,7.9|
0,6,7|
0,7,1.9|
1,0,4.5|
1,1,2.8|
1,2,0.84|
1,3,3.2|
1,4,0.95|
1,5,5.3|
1,6,4.7|
1,7,3.8|
2,0,2.7|
2,1,3.1|
2,2,3.5|
2,3,7.4|
2,4,2.1|
2,5,5.6|
2,6,8.6|
2,7,2.8|
3,0,5.4|
3,1,3.4|
3,2,9.2|
3,3,7|
3,4,4|
3,5,5|
3,6,10|
3,7,6|
4,0,8.1|
4,1,2.8|
4,2,6.4|
4,3,3|
4,4,3.2|
4,5,5.8|
4,6,1.9|
4,7,6.1|
5,0,8.5|
5,1,7.1|
5,2,8.9|
5,3,4.9|
5,4,5.2|
5,5,0.24|
5,6,1.7|
5,7,5.1|
6,0,0.94|
6,1,5.6|
6,2,2.2|
6,3,1.1|
6,4,8.5|
6,5,7.3|
6,6,8.8|
6,7,5.2|
7,0,5.1|
7,1,5.7|
7,2,4.5|
7,3,0.57|
7,4,1.1|
7,5,9.1|
7,6,3.8|
7,7,7.5|
];
constraint_x11_x7=[
0,0,5.6|
0,1,1.2|
0,2,3.7|
0,3,2.7|
0,4,8.9|
0,5,2.6|
0,6,4|
0,7,0.93|
1,0,1.3|
1,1,6.3|
1,2,7.8|
1,3,4.5|
1,4,7.5|
1,5,4.4|
1,6,9|
1,7,2.1|
2,0,7.6|
2,1,7.1|
2,2,6.7|
2,3,3.9|
2,4,2.2|
2,5,5.3|
2,6,9.6|
2,7,3.5|
3,0,7.9|
3,1,7.2|
3,2,8.6|
3,3,0.25|
3,4,7.8|
3,5,9.3|
3,6,2.8|
3,7,9.9|
4,0,1.5|
4,1,7.8|
4,2,6.2|
4,3,5.2|
4,4,9.5|
4,5,7.8|
4,6,7.2|
4,7,9.7|
5,0,8.1|
5,1,1.4|
5,2,2.7|
5,3,7.7|
5,4,7.2|
5,5,8.3|
5,6,7.9|
5,7,5.2|
6,0,7.5|
6,1,3.5|
6,2,0.49|
6,3,4.1|
6,4,8.9|
6,5,4|
6,6,3.2|
6,7,8.3|
7,0,3.1|
7,1,8.4|
7,2,8.9|
7,3,0.17|
7,4,1.9|
7,5,1.3|
7,6,0.52|
7,7,4.5|
];
constraint_x12_x8=[
0,0,3.5|
0,1,4.3|
0,2,4.1|
0,3,7.6|
0,4,5.9|
0,5,2.2|
0,6,1.2|
0,7,2|
1,0,0.13|
1,1,8.2|
1,2,6.2|
1,3,1.4|
1,4,3.3|
1,5,5.4|
1,6,7.8|
1,7,4.3|
2,0,3.7|
2,1,0.6|
2,2,3.1|
2,3,4.1|
2,4,3.7|
2,5,6.3|
2,6,3.9|
2,7,0.49|
3,0,9.5|
3,1,6.7|
3,2,8|
3,3,0.23|
3,4,0.057|
3,5,4|
3,6,6.8|
3,7,1.6|
4,0,4.5|
4,1,2.7|
4,2,7.6|
4,3,2.4|
4,4,0.9|
4,5,8.4|
4,6,8.3|
4,7,5.2|
5,0,1.8|
5,1,6.4|
5,2,3.9|
5,3,7|
5,4,0.44|
5,5,4.9|
5,6,5.7|
5,7,2.3|
6,0,9.1|
6,1,1.9|
6,2,4.2|
6,3,9.3|
6,4,1.9|
6,5,5.1|
6,6,7.2|
6,7,1.6|
7,0,1.9|
7,1,2|
7,2,6.9|
7,3,5.7|
7,4,4.7|
7,5,5.3|
7,6,1.7|
7,7,1.5|
];
constraint_x13_x9=[
0,0,5.6|
0,1,3.4|
0,2,8.3|
0,3,4.7|
0,4,1.1|
0,5,3.1|
0,6,9.9|
0,7,0.57|
1,0,2.1|
1,1,5.3|
1,2,5.3|
1,3,3|
1,4,9.8|
1,5,3.4|
1,6,3.4|
1,7,3.8|
2,0,3.3|
2,1,2.9|
2,2,8.5|
2,3,8.8|
2,4,5.9|
2,5,7.8|
2,6,3|
2,7,1.3|
3,0,3.8|
3,1,1.6|
3,2,9|
3,3,9.6|
3,4,6.1|
3,5,2.1|
3,6,3.7|
3,7,3.6|
4,0,0.6|
4,1,1.2|
4,2,0.094|
4,3,3|
4,4,6.5|
4,5,7.2|
4,6,2.1|
4,7,7.9|
5,0,3.7|
5,1,3|
5,2,8.3|
5,3,0.91|
5,4,3.6|
5,5,9.5|
5,6,2.1|
5,7,5|
6,0,2.9|
6,1,4.5|
6,2,0.2|
6,3,9.1|
6,4,9.6|
6,5,5.8|
6,6,4.7|
6,7,6.9|
7,0,2.2|
7,1,3.5|
7,2,5.8|
7,3,5.6|
7,4,0.45|
7,5,7.2|
7,6,5.7|
7,7,7.2|
];
constraint_x14_x10=[
0,0,2|
0,1,4.1|
0,2,3.7|
0,3,4.7|
0,4,7.5|
0,5,3.2|
0,6,7.5|
0,7,5.1|
1,0,3.4|
1,1,5.3|
1,2,9.4|
1,3,6.6|
1,4,5.3|
1,5,7.7|
1,6,4.9|
1,7,1.9|
2,0,0.15|
2,1,8.7|
2,2,0.68|
2,3,1.2|
2,4,6.6|
2,5,9.6|
2,6,3.5|
2,7,7.3|
3,0,6.3|
3,1,1|
3,2,2.7|
3,3,3.5|
3,4,4.4|
3,5,1.3|
3,6,4.1|
3,7,6.7|
4,0,7.9|
4,1,5.9|
4,2,5.8|
4,3,1.7|
4,4,7.3|
4,5,0.23|
4,6,5.7|
4,7,1.1|
5,0,7.4|
5,1,1.8|
5,2,0.98|
5,3,7.9|
5,4,2.6|
5,5,6.7|
5,6,4.1|
5,7,6.5|
6,0,9.2|
6,1,9.2|
6,2,4.3|
6,3,8|
6,4,6.2|
6,5,5.9|
6,6,8.3|
6,7,3.9|
7,0,4.9|
7,1,6.8|
7,2,8.9|
7,3,2.3|
7,4,8.8|
7,5,4.9|
7,6,6.1|
7,7,1.9|
];
constraint_x1_y1=[
0,0,2.8|
0,1,2.4|
0,2,3.2|
0,3,5|
0,4,5.4|
0,5,0.12|
0,6,8.5|
0,7,5.6|
1,0,8.2|
1,1,7.9|
1,2,3.6|
1,3,7.3|
1,4,1.7|
1,5,8.3|
1,6,1.5|
1,7,7.9|
2,0,4.8|
2,1,4.6|
2,2,7.1|
2,3,1.2|
2,4,5.3|
2,5,4.7|
2,6,3|
2,7,6.5|
3,0,7.3|
3,1,9|
3,2,7|
3,3,0.3|
3,4,4.5|
3,5,8.9|
3,6,1.2|
3,7,0.75|
4,0,6|
4,1,2|
4,2,1.1|
4,3,9|
4,4,1.9|
4,5,2.5|
4,6,7.4|
4,7,5.3|
5,0,9.4|
5,1,8.8|
5,2,8.7|
5,3,7.8|
5,4,0.037|
5,5,1.3|
5,6,1.8|
5,7,2.7|
6,0,3.1|
6,1,2.9|
6,2,9.6|
6,3,8.9|
6,4,5.1|
6,5,9.5|
6,6,9.9|
6,7,6.2|
7,0,7.2|
7,1,3.7|
7,2,1.3|
7,3,1.3|
7,4,3.4|
7,5,9.5|
7,6,6.7|
7,7,7|
];
constraint_x2_y2=[
0,0,0.51|
0,1,2.2|
0,2,8.7|
0,3,1.2|
0,4,8.6|
0,5,3.4|
0,6,7.1|
0,7,4|
1,0,6.6|
1,1,7.9|
1,2,4.3|
1,3,7.9|
1,4,2.7|
1,5,8.8|
1,6,5.3|
1,7,0.97|
2,0,7|
2,1,7.7|
2,2,2|
2,3,0.97|
2,4,4.4|
2,5,7.3|
2,6,1.8|
2,7,6.9|
3,0,9|
3,1,9.9|
3,2,2.5|
3,3,10|
3,4,5.3|
3,5,5.5|
3,6,0.23|
3,7,8.4|
4,0,6.6|
4,1,1.3|
4,2,8.2|
4,3,2.5|
4,4,6|
4,5,2.6|
4,6,5.5|
4,7,0.073|
5,0,5.2|
5,1,0.56|
5,2,2.4|
5,3,9.6|
5,4,1.4|
5,5,6.3|
5,6,2.4|
5,7,0.53|
6,0,4.5|
6,1,3.8|
6,2,6.9|
6,3,3.3|
6,4,7.5|
6,5,6.6|
6,6,2.7|
6,7,8.2|
7,0,8.2|
7,1,4.2|
7,2,6.6|
7,3,0.57|
7,4,3.7|
7,5,2.5|
7,6,3|
7,7,3|
];
constraint_x3_y3=[
0,0,2|
0,1,0.2|
0,2,0.6|
0,3,6.9|
0,4,4.2|
0,5,9.3|
0,6,4.3|
0,7,2.7|
1,0,2.7|
1,1,6.6|
1,2,5|
1,3,0.66|
1,4,6.9|
1,5,9.6|
1,6,3.8|
1,7,6.6|
2,0,0.58|
2,1,8.5|
2,2,8.6|
2,3,1.7|
2,4,9.8|
2,5,3.3|
2,6,5.3|
2,7,4.9|
3,0,3.8|
3,1,8.4|
3,2,5.7|
3,3,5.7|
3,4,3.6|
3,5,4.3|
3,6,6.9|
3,7,3.4|
4,0,2.9|
4,1,2.4|
4,2,1.8|
4,3,9.8|
4,4,8|
4,5,2.8|
4,6,9.9|
4,7,6.2|
5,0,4.7|
5,1,5.9|
5,2,8.6|
5,3,4.2|
5,4,8.1|
5,5,4.2|
5,6,7.7|
5,7,7.7|
6,0,7.3|
6,1,1.1|
6,2,1.8|
6,3,9.1|
6,4,0.85|
6,5,6.6|
6,6,4.6|
6,7,0.27|
7,0,5.1|
7,1,1.7|
7,2,1.4|
7,3,9.9|
7,4,7.6|
7,5,0.27|
7,6,1.3|
7,7,1.3|
];
constraint_x4_y4=[
0,0,5|
0,1,2.2|
0,2,5.2|
0,3,8.2|
0,4,2.4|
0,5,8.2|
0,6,6.3|
0,7,0.41|
1,0,8.6|
1,1,7.7|
1,2,3.8|
1,3,6.2|
1,4,0.51|
1,5,5.4|
1,6,5.7|
1,7,5.7|
2,0,5.8|
2,1,8.4|
2,2,0.034|
2,3,7.7|
2,4,2.2|
2,5,3.9|
2,6,1.3|
2,7,9.1|
3,0,8.4|
3,1,1.3|
3,2,8.7|
3,3,10|
3,4,0.7|
3,5,2.8|
3,6,9.9|
3,7,8.6|
4,0,1.5|
4,1,7|
4,2,6.2|
4,3,3.9|
4,4,9.2|
4,5,9.6|
4,6,1.3|
4,7,3.8|
5,0,8.3|
5,1,6.2|
5,2,4|
5,3,3.3|
5,4,7.1|
5,5,5|
5,6,5.7|
5,7,3.7|
6,0,6|
6,1,3.1|
6,2,9.3|
6,3,9.6|
6,4,9.6|
6,5,2.1|
6,6,0.16|
6,7,8.3|
7,0,8.9|
7,1,7.6|
7,2,5.9|
7,3,7.5|
7,4,3.6|
7,5,7.6|
7,6,2.7|
7,7,9.1|
];
constraint_x5_y5=[
0,0,6.4|
0,1,5.1|
0,2,4.5|
0,3,5.8|
0,4,2.5|
0,5,10|
0,6,4.9|
0,7,6.9|
1,0,5.2|
1,1,9.2|
1,2,4.1|
1,3,9.2|
1,4,3.4|
1,5,5.4|
1,6,6.9|
1,7,5.5|
2,0,1.8|
2,1,2.8|
2,2,0.12|
2,3,8.9|
2,4,6.2|
2,5,6|
2,6,7.7|
2,7,7.5|
3,0,0.96|
3,1,0.95|
3,2,7.5|
3,3,5.7|
3,4,9.7|
3,5,4.1|
3,6,4.8|
3,7,7.1|
4,0,1.3|
4,1,9.6|
4,2,7.2|
4,3,5.9|
4,4,5.6|
4,5,3.8|
4,6,7.4|
4,7,6.2|
5,0,7.9|
5,1,5.4|
5,2,7.3|
5,3,9.7|
5,4,8.1|
5,5,7.6|
5,6,2.3|
5,7,7.7|
6,0,2.6|
6,1,3.5|
6,2,6.2|
6,3,5|
6,4,5.3|
6,5,9.1|
6,6,3.3|
6,7,5.8|
7,0,3.7|
7,1,9.7|
7,2,6.7|
7,3,5.9|
7,4,2.8|
7,5,0.42|
7,6,8.2|
7,7,7.1|
];
constraint_x6_y6=[
0,0,6.2|
0,1,9.3|
0,2,9.3|
0,3,1.2|
0,4,7.3|
0,5,0.38|
0,6,0.16|
0,7,2.3|
1,0,5.7|
1,1,3|
1,2,4.2|
1,3,7|
1,4,5.7|
1,5,5.5|
1,6,7|
1,7,6.2|
2,0,4|
2,1,0.63|
2,2,1.4|
2,3,9|
2,4,5.4|
2,5,4.3|
2,6,1|
2,7,8.7|
3,0,5.6|
3,1,8.4|
3,2,8.3|
3,3,1.7|
3,4,6.3|
3,5,0.17|
3,6,4.4|
3,7,2.8|
4,0,1.1|
4,1,8.3|
4,2,1.5|
4,3,6.8|
4,4,4.6|
4,5,5.1|
4,6,7.5|
4,7,7.9|
5,0,5.2|
5,1,4.9|
5,2,6.5|
5,3,0.17|
5,4,0.8|
5,5,5.4|
5,6,5|
5,7,1.8|
6,0,6.3|
6,1,4.1|
6,2,6.7|
6,3,4.7|
6,4,1.5|
6,5,3.9|
6,6,9.1|
6,7,5.1|
7,0,6.4|
7,1,1.1|
7,2,9.4|
7,3,4.3|
7,4,2.8|
7,5,5.7|
7,6,9.1|
7,7,9.9|
];
initial_distribution_y1=[0.043,0.062,0.17,0.086,0.19,0.13,0.19,0.14];
initial_distribution_y2=[0.083,0.079,0.095,0.21,0.13,0.094,0.13,0.18];
initial_distribution_y3=[0.078,0.12,0.15,0.15,0.2,0.19,0.063,0.039];
initial_distribution_y4=[0.051,0.13,0.17,0.13,0.053,0.21,0.082,0.17];
initial_distribution_y5=[0.096,0.092,0.13,0.15,0.2,0.033,0.18,0.13];
initial_distribution_y6=[0.14,0.17,0.0043,0.19,0.19,0.062,0.2,0.049];
transition_y1=[
0.21,0.12,0.079,0.066,0.048,0.053,0.11,0.31|
0.11,0.13,0.11,0.2,0.041,0.059,0.14,0.21|
0.13,0.016,0.04,0.19,0.18,0.095,0.18,0.17|
0.24,0.018,0.2,0.075,0.24,0.083,0.13,0.017|
0.013,0.092,0.059,0.034,0.26,0.091,0.2,0.26|
0.062,0.19,0.19,0.023,0.19,0.2,0.074,0.077|
0.092,0.02,0.19,0.14,0.093,0.18,0.17,0.12|
0.042,0.051,0.28,0.23,0.086,0.14,0.012,0.16|
];
transition_y2=[
0.019,0.15,0.14,0.16,0.16,0.017,0.18,0.18|
0.1,0.18,0.01,0.2,0.1,0.089,0.23,0.082|
0.19,0.15,0.18,0.031,0.14,0.17,0.071,0.066|
0.046,0.3,0.013,0.053,0.1,0.15,0.13,0.2|
0.19,0.16,0.0091,0.12,0.089,0.084,0.14,0.2|
0.22,0.1,0.093,0.0027,0.19,0.14,0.058,0.2|
0.19,0.16,0.047,0.096,0.096,0.12,0.11,0.17|
0.14,0.14,0.035,0.26,0.12,0.018,0.23,0.057|
];
transition_y3=[
0.13,0.15,0.032,0.25,0.28,0.034,0.04,0.094|
0.087,0.22,0.21,0.095,0.093,0.092,0.03,0.18|
0.082,0.025,0.14,0.11,0.043,0.22,0.27,0.12|
0.12,0.17,0.049,0.24,0.028,0.073,0.19,0.14|
0.21,0.12,0.068,0.13,0.096,0.11,0.23,0.031|
0.061,0.14,0.093,0.06,0.053,0.071,0.26,0.26|
0.09,0.18,0.11,0.087,0.07,0.16,0.14,0.17|
0.18,0.033,0.23,0.041,0.13,0.1,0.13,0.16|
];
transition_y4=[
0.12,0.1,0.16,0.16,0.12,0.17,0.097,0.067|
0.058,0.17,0.13,0.18,0.17,0.05,0.17,0.068|
0.23,0.16,0.18,0.097,0.027,0.1,0.072,0.13|
0.15,0.09,0.15,0.16,0.095,0.11,0.15,0.09|
0.018,0.11,0.15,0.16,0.13,0.16,0.12,0.16|
0.11,0.16,0.13,0.082,0.14,0.18,0.12,0.088|
0.26,0.082,0.092,0.11,0.15,0.019,0.14,0.15|
0.11,0.015,0.08,0.25,0.11,0.049,0.31,0.082|
];
transition_y5=[
0.035,0.11,0.15,0.18,0.16,0.057,0.14,0.17|
0.25,0.072,0.044,0.0095,0.16,0.25,0.015,0.2|
0.0095,0.22,0.17,0.12,0.16,0.081,0.099,0.14|
0.14,0.006,0.085,0.063,0.26,0.077,0.26,0.12|
0.15,0.18,0.041,0.16,0.12,0.19,0.037,0.13|
0.18,0.2,0.046,0.07,0.17,0.12,0.02,0.18|
0.098,0.21,0.097,0.035,0.17,0.18,0.12,0.091|
0.058,0.25,0.16,0.16,0.18,0.13,0.035,0.021|
];
transition_y6=[
0.14,0.12,0.011,0.2,0.21,0.0094,0.11,0.2|
0.045,0.15,0.18,0.18,0.034,0.087,0.17,0.16|
0.05,0.058,0.15,0.02,0.042,0.2,0.24,0.24|
0.19,0.13,0.2,0.046,0.089,0.18,0.0056,0.16|
0.1,0.051,0.35,0.27,0.052,0.091,0.056,0.024|
0.18,0.03,0.11,0.11,0.16,0.12,0.23,0.064|
0.22,0.16,0.018,0.1,0.17,0.085,0.033,0.21|
0.21,0.1,0.1,0.24,0.05,0.14,0.0098,0.14|
];
